 Code   631
 Dimension, Fixed Cost
   100        3000
 Facility, Client, Transportation Cost
     1        7           1
     1        9           3
     1       47           2
     1       49           4
     1       58           2
     1       64           2
     1       70           3
     1       73           1
     1       86           1
     1       95           0
     2       18           1
     2       23           3
     2       25           1
     2       26           2
     2       28           3
     2       51           0
     2       52           4
     2       69           0
     2       70           2
     2       85           4
     3       30           3
     3       46           1
     3       50           4
     3       52           0
     3       60           3
     3       71           1
     3       77           2
     3       85           3
     3       91           3
     3       95           2
     4        1           0
     4        9           2
     4       14           2
     4       43           0
     4       61           1
     4       62           0
     4       67           4
     4       68           2
     4       92           2
     4       96           0
     5        5           2
     5        7           3
     5       17           1
     5       43           3
     5       67           1
     5       72           1
     5       78           3
     5       83           3
     5       92           2
     5       93           4
     6       11           1
     6       23           0
     6       52           4
     6       55           4
     6       65           1
     6       68           2
     6       69           1
     6       75           3
     6       88           2
     6       94           2
     7        1           2
     7        3           3
     7       14           1
     7       23           3
     7       38           3
     7       53           2
     7       66           0
     7       75           1
     7       78           3
     7       84           0
     8       16           4
     8       20           4
     8       21           2
     8       35           2
     8       51           4
     8       61           2
     8       90           1
     8       94           2
     8       96           3
     8      100           4
     9        8           0
     9       20           0
     9       32           3
     9       36           3
     9       51           3
     9       52           4
     9       69           0
     9       91           4
     9       92           3
     9       95           3
    10       20           2
    10       35           3
    10       41           0
    10       60           0
    10       65           1
    10       78           4
    10       83           0
    10       85           1
    10       90           4
    10       93           0
    11        1           1
    11       12           1
    11       14           0
    11       15           3
    11       28           1
    11       34           4
    11       52           2
    11       59           3
    11       80           3
    11       88           4
    12       20           1
    12       23           2
    12       43           0
    12       45           2
    12       46           1
    12       47           2
    12       54           0
    12       71           2
    12       89           2
    12       96           1
    13       23           4
    13       28           0
    13       37           0
    13       38           3
    13       42           3
    13       47           0
    13       61           1
    13       70           1
    13       78           3
    13       88           0
    14        2           3
    14       10           1
    14       20           0
    14       26           3
    14       35           3
    14       41           0
    14       70           2
    14       79           4
    14       85           4
    14       99           1
    15       12           1
    15       18           0
    15       29           4
    15       32           2
    15       33           4
    15       34           2
    15       57           0
    15       60           3
    15       87           1
    15       99           1
    16       10           4
    16       24           4
    16       27           2
    16       37           1
    16       38           3
    16       44           1
    16       64           3
    16       84           2
    16       85           1
    16       87           1
    17       10           3
    17       15           4
    17       18           0
    17       26           3
    17       55           1
    17       59           4
    17       67           0
    17       90           2
    17       91           1
    17      100           0
    18       14           3
    18       23           2
    18       26           2
    18       28           4
    18       32           4
    18       33           1
    18       39           3
    18       90           2
    18       93           0
    18       98           1
    19        5           3
    19       39           0
    19       45           2
    19       46           3
    19       72           1
    19       74           1
    19       78           0
    19       83           1
    19       95           4
    19      100           1
    20       11           0
    20       16           4
    20       34           1
    20       41           1
    20       44           2
    20       55           4
    20       57           2
    20       59           0
    20       87           1
    20       93           1
    21        1           1
    21        2           1
    21       27           4
    21       30           3
    21       44           3
    21       55           1
    21       62           4
    21       70           1
    21       77           0
    21       85           4
    22        7           2
    22       29           1
    22       38           3
    22       48           3
    22       53           1
    22       70           2
    22       74           2
    22       75           4
    22       95           2
    22      100           0
    23       14           4
    23       17           4
    23       25           1
    23       36           1
    23       38           3
    23       50           0
    23       51           2
    23       58           0
    23       81           2
    23       98           0
    24       17           4
    24       36           3
    24       40           0
    24       43           4
    24       44           3
    24       54           2
    24       58           1
    24       64           2
    24       98           3
    24       99           4
    25        7           3
    25       11           1
    25       18           0
    25       23           3
    25       33           2
    25       65           1
    25       69           3
    25       76           1
    25       81           0
    25       89           4
    26        4           1
    26        7           1
    26       14           3
    26       28           2
    26       43           0
    26       50           4
    26       64           1
    26       80           4
    26       95           0
    26       96           3
    27        9           2
    27       11           4
    27       19           2
    27       24           0
    27       47           1
    27       51           4
    27       74           0
    27       83           4
    27       85           3
    27       95           0
    28        3           0
    28       42           3
    28       44           3
    28       51           4
    28       54           3
    28       59           1
    28       67           4
    28       75           4
    28       85           2
    28       98           4
    29        1           3
    29        2           4
    29       10           0
    29       11           4
    29       26           2
    29       40           2
    29       60           3
    29       62           3
    29       91           3
    29       93           0
    30        2           4
    30       30           3
    30       37           0
    30       51           3
    30       52           0
    30       68           4
    30       75           3
    30       76           2
    30       79           1
    30       89           0
    31        9           1
    31       11           3
    31       32           0
    31       34           0
    31       51           2
    31       57           0
    31       67           4
    31       72           0
    31       74           1
    31       99           3
    32        8           4
    32       16           1
    32       20           2
    32       32           1
    32       47           0
    32       62           1
    32       63           0
    32       75           1
    32       76           4
    32       94           1
    33        5           4
    33        9           0
    33       29           0
    33       43           0
    33       61           2
    33       65           1
    33       69           1
    33       89           1
    33       90           4
    33       98           1
    34        1           2
    34       10           4
    34       17           0
    34       35           4
    34       37           0
    34       44           1
    34       45           2
    34       71           1
    34       76           0
    34       84           0
    35       12           4
    35       15           3
    35       18           0
    35       23           2
    35       29           2
    35       38           3
    35       54           3
    35       70           2
    35       78           4
    35       88           3
    36        3           1
    36       10           4
    36       14           3
    36       50           2
    36       53           3
    36       60           4
    36       65           1
    36       66           2
    36       94           0
    36       98           3
    37        7           1
    37       15           2
    37       39           4
    37       46           4
    37       50           4
    37       56           2
    37       66           0
    37       73           1
    37       79           4
    37       94           3
    38       14           2
    38       28           4
    38       30           3
    38       33           0
    38       34           2
    38       57           4
    38       65           1
    38       79           4
    38       92           3
    38       97           3
    39       14           0
    39       20           2
    39       23           2
    39       34           2
    39       36           4
    39       57           2
    39       58           1
    39       76           2
    39       85           1
    39       88           1
    40       10           0
    40       17           4
    40       48           2
    40       52           3
    40       53           2
    40       62           0
    40       77           4
    40       79           0
    40       88           1
    40       99           0
    41        3           4
    41       31           3
    41       37           1
    41       51           0
    41       56           3
    41       63           4
    41       75           0
    41       90           2
    41       92           0
    41      100           0
    42       13           3
    42       14           2
    42       17           2
    42       23           2
    42       60           1
    42       65           3
    42       77           2
    42       84           0
    42       94           3
    42       97           3
    43       13           2
    43       28           3
    43       33           2
    43       41           0
    43       61           0
    43       62           4
    43       71           3
    43       74           3
    43       83           2
    43       90           0
    44       20           0
    44       30           2
    44       40           1
    44       43           0
    44       46           4
    44       47           3
    44       53           3
    44       54           1
    44       62           2
    44       93           3
    45       12           0
    45       13           0
    45       44           4
    45       48           2
    45       51           1
    45       54           3
    45       56           0
    45       88           2
    45       93           2
    45       97           1
    46        1           2
    46       24           0
    46       34           2
    46       43           1
    46       45           1
    46       46           4
    46       49           2
    46       60           0
    46       73           3
    46       76           0
    47        3           3
    47       23           1
    47       28           0
    47       33           3
    47       63           1
    47       66           2
    47       67           2
    47       73           3
    47       81           2
    47       94           4
    48        2           2
    48       10           0
    48       23           4
    48       41           3
    48       43           2
    48       67           3
    48       76           0
    48       77           3
    48       80           1
    48       85           1
    49       10           2
    49       21           0
    49       39           1
    49       47           3
    49       52           4
    49       54           2
    49       57           2
    49       58           4
    49       91           2
    49       95           4
    50       14           1
    50       20           4
    50       23           2
    50       34           0
    50       36           2
    50       70           4
    50       76           3
    50       77           3
    50       82           0
    50       84           4
    51       11           2
    51       14           0
    51       55           4
    51       56           0
    51       57           3
    51       65           0
    51       68           3
    51       75           4
    51       79           4
    51       89           1
    52        9           2
    52       24           1
    52       54           3
    52       67           3
    52       68           2
    52       78           4
    52       79           3
    52       83           3
    52       85           1
    52       87           0
    53       15           3
    53       28           0
    53       33           0
    53       43           3
    53       47           3
    53       51           1
    53       68           0
    53       89           2
    53       92           2
    53       93           3
    54        4           0
    54        5           0
    54        8           1
    54       29           1
    54       35           0
    54       78           2
    54       82           0
    54       89           1
    54       93           0
    54       95           4
    55        3           1
    55       18           2
    55       22           0
    55       25           1
    55       26           0
    55       29           1
    55       45           2
    55       47           1
    55       65           3
    55       88           0
    56        9           1
    56       13           2
    56       21           2
    56       68           4
    56       69           2
    56       71           3
    56       78           0
    56       88           1
    56       93           1
    56       99           1
    57        4           0
    57        7           0
    57       43           4
    57       45           0
    57       49           0
    57       50           1
    57       60           1
    57       72           3
    57       73           1
    57       87           4
    58        4           3
    58        9           4
    58       27           2
    58       65           4
    58       66           4
    58       67           0
    58       70           2
    58       74           3
    58       93           4
    58       98           4
    59       16           4
    59       26           2
    59       36           1
    59       44           4
    59       50           0
    59       52           4
    59       59           2
    59       87           4
    59       88           0
    59       90           3
    60       27           0
    60       33           0
    60       38           3
    60       41           4
    60       47           0
    60       54           2
    60       56           0
    60       74           4
    60       87           3
    60       98           4
    61        1           2
    61        8           3
    61       11           3
    61       13           0
    61       26           1
    61       50           3
    61       73           3
    61       88           1
    61       91           4
    61       95           1
    62        1           4
    62        9           1
    62       18           3
    62       47           1
    62       58           2
    62       64           4
    62       66           1
    62       69           1
    62       75           4
    62       97           1
    63       10           1
    63       15           3
    63       23           4
    63       31           4
    63       41           0
    63       53           1
    63       61           1
    63       73           3
    63       79           1
    63       80           0
    64        3           1
    64       34           0
    64       35           0
    64       42           2
    64       46           2
    64       47           4
    64       75           1
    64       82           4
    64       92           4
    64       98           3
    65       12           0
    65       15           0
    65       24           3
    65       35           3
    65       42           0
    65       50           1
    65       53           2
    65       55           2
    65       63           0
    65       81           4
    66        9           1
    66       18           4
    66       37           4
    66       43           2
    66       47           2
    66       65           1
    66       66           3
    66       83           3
    66       88           2
    66       98           4
    67       11           1
    67       15           2
    67       53           4
    67       57           1
    67       61           2
    67       68           2
    67       75           2
    67       84           3
    67       95           0
    67       97           0
    68       27           3
    68       46           3
    68       51           1
    68       62           4
    68       68           4
    68       76           0
    68       78           1
    68       80           0
    68       84           2
    68       98           0
    69        3           2
    69       26           3
    69       27           0
    69       30           0
    69       51           0
    69       54           1
    69       59           0
    69       66           3
    69       69           3
    69       72           0
    70       24           2
    70       37           0
    70       49           0
    70       56           2
    70       68           2
    70       73           4
    70       77           2
    70       83           1
    70       92           4
    70       99           2
    71        3           3
    71       11           1
    71       15           0
    71       18           4
    71       19           2
    71       21           0
    71       34           1
    71       62           2
    71       76           4
    71       88           2
    72       19           1
    72       29           4
    72       55           1
    72       56           1
    72       57           2
    72       71           4
    72       75           3
    72       77           0
    72       82           4
    72       88           1
    73        3           1
    73        5           1
    73        6           2
    73       30           1
    73       36           4
    73       49           3
    73       54           1
    73       81           3
    73       85           3
    73       88           0
    74        9           3
    74       15           0
    74       23           4
    74       43           4
    74       46           2
    74       53           1
    74       57           4
    74       81           2
    74       89           4
    74       92           4
    75        8           3
    75       42           2
    75       59           2
    75       61           1
    75       66           2
    75       72           3
    75       81           4
    75       85           2
    75       87           3
    75       95           1
    76       13           1
    76       15           1
    76       20           1
    76       27           4
    76       29           2
    76       58           3
    76       74           1
    76       79           3
    76       92           0
    76       93           4
    77        2           3
    77        3           0
    77        4           2
    77       26           3
    77       37           4
    77       39           1
    77       60           1
    77       83           2
    77       88           1
    77       98           2
    78        4           0
    78       17           1
    78       21           4
    78       24           0
    78       25           3
    78       29           2
    78       49           4
    78       53           4
    78       56           2
    78       96           3
    79        5           0
    79       24           2
    79       29           3
    79       31           0
    79       37           3
    79       39           2
    79       60           2
    79       62           4
    79       70           2
    79       89           4
    80        3           4
    80        7           3
    80       22           1
    80       35           4
    80       37           1
    80       42           2
    80       56           1
    80       72           0
    80       75           1
    80       82           3
    81       26           3
    81       33           3
    81       45           2
    81       56           2
    81       60           4
    81       67           1
    81       75           0
    81       76           3
    81       79           4
    81       96           1
    82       10           0
    82       33           0
    82       34           3
    82       36           4
    82       52           2
    82       55           0
    82       58           2
    82       63           4
    82       78           2
    82       81           0
    83       10           0
    83       12           0
    83       21           3
    83       30           0
    83       36           4
    83       44           3
    83       79           1
    83       85           0
    83       90           2
    83       96           0
    84       20           1
    84       33           3
    84       55           3
    84       60           3
    84       68           2
    84       72           1
    84       74           1
    84       76           1
    84       77           0
    84       92           3
    85       18           4
    85       24           2
    85       31           1
    85       34           1
    85       37           1
    85       44           0
    85       48           1
    85       65           0
    85       76           1
    85       93           1
    86        4           0
    86        9           0
    86       27           3
    86       34           2
    86       41           0
    86       60           0
    86       64           1
    86       73           3
    86       74           2
    86       77           2
    87        7           3
    87       10           1
    87       17           1
    87       19           3
    87       37           1
    87       41           0
    87       42           0
    87       63           2
    87       82           0
    87       97           2
    88        2           3
    88       11           2
    88       28           0
    88       38           3
    88       50           2
    88       61           1
    88       74           0
    88       85           0
    88       87           3
    88       92           4
    89       16           1
    89       28           1
    89       31           1
    89       50           0
    89       74           0
    89       79           3
    89       84           1
    89       93           2
    89       95           0
    89       98           0
    90       23           1
    90       27           2
    90       31           0
    90       41           2
    90       59           3
    90       67           4
    90       70           2
    90       76           2
    90       83           2
    90       96           0
    91       33           2
    91       42           4
    91       51           1
    91       54           1
    91       58           0
    91       74           3
    91       79           0
    91       83           3
    91       90           3
    91       94           2
    92        4           4
    92       16           0
    92       25           2
    92       31           4
    92       35           3
    92       44           2
    92       46           3
    92       63           2
    92       71           2
    92       80           0
    93        1           2
    93       12           0
    93       24           0
    93       31           2
    93       50           2
    93       55           1
    93       59           4
    93       62           4
    93       65           4
    93       85           2
    94        2           2
    94       17           0
    94       37           4
    94       56           1
    94       59           4
    94       78           2
    94       81           0
    94       86           1
    94       89           1
    94       99           0
    95        6           4
    95       23           4
    95       32           1
    95       35           2
    95       43           4
    95       52           1
    95       71           1
    95       83           1
    95       94           1
    95      100           3
    96        9           4
    96       10           1
    96       12           1
    96       30           3
    96       40           1
    96       48           3
    96       49           3
    96       68           4
    96       75           3
    96       76           2
    97        3           0
    97        5           1
    97        9           4
    97       10           3
    97       18           3
    97       29           2
    97       34           1
    97       51           4
    97       78           0
    97       93           2
    98        4           0
    98        9           3
    98       26           0
    98       38           2
    98       57           1
    98       69           1
    98       70           3
    98       71           4
    98       90           0
    98       92           3
    99        1           1
    99        3           4
    99        8           4
    99       21           4
    99       29           3
    99       36           2
    99       45           0
    99       51           1
    99       77           3
    99       97           3
   100       13           4
   100       17           4
   100       19           2
   100       27           0
   100       28           0
   100       37           1
   100       50           3
   100       62           1
   100       70           3
   100       81           2
